unsat
(define-fun f_68-13-68-36 ((next Int) (pos Int) (MC_741360 Bool)) Bool true)
0.00user 0.00system 0:00.01elapsed 100%CPU (0avgtext+0avgdata 23708maxresident)k
0inputs+8outputs (0major+770minor)pagefaults 0swaps
